50

99 27 304
96 8 293
94 17 283
93 1 353
93 4 343
91 4 360
87 20 298
87 2 293
87 16 346
84 16 339
84 15 259
83 3 265
83 12 334
83 13 309
83 17 262
83 22 310
82 21 308
81 16 323
81 5 323
78 21 325
77 2 267
77 14 274
77 7 347
76 2 356
67 10 321
65 15 345
61 5 244
61 12 341
59 6 315
58 12 289
53 4 344
53 2 338
50 9 343
49 3 286
48 1 297
47 4 246
47 5 170
46 6 344
46 3 357
44 9 259
43 5 191
42 3 212
41 10 257
41 9 324
38 11 170
35 5 109
34 9 227
32 5 298
32 6 309
31 4 260
